c Result of efficient AIG-to-CNF conversion using package CNF
p cnf 447 1568
2 3 -342 0
2 -3 342 0
-2 -3 -342 0
-2 3 342 0
3 -410 4 -327 0
3 410 4 -15 0
-3 -4 0
-3 -410 327 0
-3 410 15 0
-4 5 11 13 14 0
4 -14 0
4 -5 0
4 -13 0
4 -11 0
-5 407 408 6 8 0
5 -407 0
5 -8 0
5 -6 0
5 -408 0
-6 399 405 406 7 0
6 -7 0
6 -406 0
6 -399 0
6 -405 0
-7 403 404 409 0
7 -403 0
7 -409 0
7 -404 0
-8 400 401 402 9 0
8 -9 0
8 -402 0
8 -400 0
8 -401 0
-9 395 396 10 0
9 -10 0
9 -396 0
9 -395 0
-10 391 392 397 398 0
10 -398 0
10 -397 0
10 -391 0
10 -392 0
-11 389 393 394 12 0
11 -12 0
11 -394 0
11 -389 0
11 -393 0
-12 387 388 0
12 -387 0
12 -388 0
-13 383 390 0
13 -383 0
13 -390 0
-14 384 385 386 0
14 -384 0
14 -386 0
14 -385 0
15 -411 -297 0
15 411 -16 266 0
-15 411 16 0
-15 -411 297 0
-15 411 -266 0
-16 412 -413 234 0
-16 412 413 17 0
16 -412 0
16 -413 -234 0
16 413 -17 0
-17 -18 0
-17 414 205 0
-17 -414 29 0
17 414 18 -205 0
17 -414 18 -29 0
-18 19 25 27 28 0
18 -28 0
18 -19 0
18 -27 0
18 -25 0
-19 439 440 20 22 0
19 -439 0
19 -22 0
19 -20 0
19 -440 0
-20 431 437 438 21 0
20 -21 0
20 -438 0
20 -431 0
20 -437 0
-21 435 436 441 0
21 -435 0
21 -441 0
21 -436 0
-22 427 428 23 24 0
22 -427 0
22 -24 0
22 -23 0
22 -428 0
-23 432 433 434 0
23 -432 0
23 -434 0
23 -433 0
-24 423 424 429 430 0
24 -430 0
24 -429 0
24 -423 0
24 -424 0
-25 421 425 426 26 0
25 -26 0
25 -426 0
25 -421 0
25 -425 0
-26 419 420 0
26 -419 0
26 -420 0
-27 415 422 0
27 -415 0
27 -422 0
-28 416 417 418 0
28 -416 0
28 -418 0
28 -417 0
-29 442 30 0
-29 -442 113 0
29 -442 -113 0
29 442 -30 0
-30 443 31 0
-30 -443 69 0
30 -443 -69 0
30 443 -31 0
-31 444 32 0
-31 -444 44 0
31 -444 -44 0
31 444 -32 0
-32 445 -446 0
-32 -445 33 0
-32 445 41 0
32 -445 -33 0
32 445 446 -41 0
33 446 -34 0
33 -446 -36 0
-33 -446 36 0
-33 446 34 0
34 411 412 -413 35 0
-34 -411 0
-34 -35 0
-34 413 0
-34 -412 0
-35 410 4 0
35 -410 0
35 -4 0
36 35 -37 0
-36 -35 0
-36 37 0
37 411 -38 0
-37 -411 0
-37 38 0
38 412 -39 0
-38 -412 0
-38 39 0
39 -412 -413 0
39 413 -40 0
39 -413 -414 0
-39 413 40 0
-39 412 -413 414 0
40 -411 -414 0
40 -410 414 0
-40 410 414 0
-40 411 -414 0
41 35 -42 0
-41 -35 0
-41 42 0
42 411 412 -43 0
-42 43 0
-42 -412 0
-42 -411 0
43 413 -414 0
-43 -413 0
-43 414 0
44 445 -45 0
44 -445 -57 0
-44 -445 57 0
-44 445 45 0
45 446 -46 0
45 -446 -52 0
-45 -446 52 0
-45 446 46 0
46 35 -47 0
-46 -35 0
-46 47 0
47 411 -48 0
-47 -411 0
-47 48 0
48 -412 -43 0
48 412 -49 0
-48 412 49 0
-48 -412 43 0
49 -413 -50 0
49 413 -51 0
-49 413 51 0
-49 -413 50 0
50 -412 -414 0
50 -411 414 0
-50 411 414 0
-50 412 -414 0
51 -410 -414 0
51 -409 414 0
-51 409 414 0
-51 410 -414 0
52 35 -53 0
-52 -35 0
-52 53 0
53 411 -54 0
-53 -411 0
-53 54 0
54 412 -55 0
54 -412 413 414 0
-54 -412 -413 0
-54 412 55 0
-54 -412 -414 0
55 -413 -40 0
55 413 -56 0
-55 413 56 0
-55 -413 40 0
56 -409 -414 0
56 -408 414 0
-56 408 414 0
-56 409 -414 0
57 446 -58 0
57 -446 -64 0
-57 -446 64 0
-57 446 58 0
58 35 -59 0
-58 -35 0
-58 59 0
59 411 -60 0
-59 -411 0
-59 60 0
60 -412 -61 0
60 412 -62 0
-60 -412 61 0
-60 412 62 0
-61 412 413 -414 0
-61 411 413 414 0
61 -413 0
61 -411 414 0
61 -412 -414 0
62 -413 -51 0
62 413 -63 0
-62 413 63 0
-62 -413 51 0
63 -408 -414 0
63 -407 414 0
-63 407 414 0
-63 408 -414 0
64 35 -65 0
-64 -35 0
-64 65 0
65 411 -66 0
-65 -411 0
-65 66 0
66 -412 -413 0
66 412 -67 0
66 -412 -40 0
-66 412 67 0
-66 -412 413 40 0
67 -413 -56 0
67 413 -68 0
-67 413 68 0
-67 -413 56 0
68 -407 -414 0
68 -406 414 0
-68 406 414 0
-68 407 -414 0
69 444 -70 0
69 -444 -90 0
-69 -444 90 0
-69 444 70 0
70 445 -71 0
70 -445 -77 0
-70 -445 77 0
-70 445 71 0
71 446 -72 0
-71 -446 0
-71 72 0
72 35 -73 0
-72 -35 0
-72 73 0
73 411 -74 0
73 -411 412 -43 0
-73 -411 -412 0
-73 411 74 0
-73 -411 43 0
74 -412 -49 0
74 412 -75 0
-74 412 75 0
-74 -412 49 0
75 -413 -63 0
75 413 -76 0
-75 413 76 0
-75 -413 63 0
76 -406 -414 0
76 -405 414 0
-76 405 414 0
-76 406 -414 0
77 446 -78 0
77 -446 -84 0
-77 -446 84 0
-77 446 78 0
78 35 -79 0
-78 -35 0
-78 79 0
79 -411 -80 0
79 411 -81 0
-79 411 81 0
-79 -411 80 0
80 412 -413 0
80 -411 412 414 0
-80 -412 0
-80 413 -414 0
-80 411 413 0
81 -412 -62 0
81 412 -82 0
-81 412 82 0
-81 -412 62 0
82 -413 -76 0
82 413 -83 0
-82 413 83 0
-82 -413 76 0
83 -404 -414 0
83 -403 414 0
-83 403 414 0
-83 404 -414 0
84 35 -85 0
-84 -35 0
-84 85 0
85 -411 -38 0
85 411 -86 0
-85 411 86 0
-85 -411 38 0
86 -412 -67 0
86 412 -87 0
-86 412 87 0
-86 -412 67 0
87 413 -88 0
87 -413 -89 0
-87 -413 89 0
-87 413 88 0
88 -403 -414 0
88 -402 414 0
-88 402 414 0
-88 403 -414 0
89 -405 -414 0
89 -404 414 0
-89 404 414 0
-89 405 -414 0
90 445 -91 0
90 -445 -103 0
-90 -445 103 0
-90 445 91 0
91 446 -92 0
91 -446 -97 0
-91 -446 97 0
-91 446 92 0
92 35 -93 0
-92 -35 0
-92 93 0
93 -411 -48 0
93 411 -94 0
-93 411 94 0
-93 -411 48 0
94 -412 -75 0
94 412 -95 0
-94 412 95 0
-94 -412 75 0
95 -413 -83 0
95 413 -96 0
-95 413 96 0
-95 -413 83 0
96 -402 -414 0
96 -401 414 0
-96 401 414 0
-96 402 -414 0
97 35 -98 0
-97 -35 0
-97 98 0
98 -411 -54 0
98 411 -99 0
-98 411 99 0
-98 -411 54 0
99 412 -100 0
99 -412 -102 0
-99 -412 102 0
-99 412 100 0
100 -413 -88 0
100 413 -101 0
-100 413 101 0
-100 -413 88 0
101 -401 -414 0
101 -400 414 0
-101 400 414 0
-101 401 -414 0
102 -413 -68 0
102 413 -89 0
-102 413 89 0
-102 -413 68 0
103 446 -104 0
103 -446 -109 0
-103 -446 109 0
-103 446 104 0
104 35 -105 0
-104 -35 0
-104 105 0
105 -411 -60 0
105 411 -106 0
-105 411 106 0
-105 -411 60 0
106 -412 -82 0
106 412 -107 0
-106 412 107 0
-106 -412 82 0
107 -413 -96 0
107 413 -108 0
-107 413 108 0
-107 -413 96 0
108 -400 -414 0
108 -399 414 0
-108 399 414 0
-108 400 -414 0
109 411 35 -110 0
109 -411 35 -66 0
-109 -35 0
-109 -411 66 0
-109 411 110 0
110 -412 -87 0
110 412 -111 0
-110 412 111 0
-110 -412 87 0
111 -413 -101 0
111 413 -112 0
-111 413 112 0
-111 -413 101 0
112 -399 -414 0
112 -398 414 0
-112 398 414 0
-112 399 -414 0
113 443 -114 0
113 -443 -162 0
-113 -443 162 0
-113 443 114 0
114 444 -115 0
114 -444 -139 0
-114 -444 139 0
-114 444 115 0
115 445 -116 0
115 -445 -127 0
-115 -445 127 0
-115 445 116 0
116 446 -117 0
116 -446 -122 0
-116 -446 122 0
-116 446 117 0
117 410 4 -118 0
117 -410 4 -42 0
-117 -4 0
-117 -410 42 0
-117 410 118 0
118 -411 -74 0
118 411 -119 0
-118 411 119 0
-118 -411 74 0
119 -412 -95 0
119 412 -120 0
-119 412 120 0
-119 -412 95 0
120 -413 -108 0
120 413 -121 0
-120 413 121 0
-120 -413 108 0
121 -398 -414 0
121 -397 414 0
-121 397 414 0
-121 398 -414 0
122 411 35 -124 0
122 -411 35 -123 0
-122 -35 0
-122 -411 123 0
-122 411 124 0
123 -412 -55 0
123 412 -102 0
-123 412 102 0
-123 -412 55 0
124 -412 -100 0
124 412 -125 0
-124 412 125 0
-124 -412 100 0
125 -413 -112 0
125 413 -126 0
-125 413 126 0
-125 -413 112 0
126 -397 -414 0
126 -396 414 0
-126 396 414 0
-126 397 -414 0
127 446 -128 0
127 -446 -134 0
-127 -446 134 0
-127 446 128 0
128 410 4 -130 0
128 -410 -129 4 0
-128 -4 0
-128 -410 129 0
-128 410 130 0
129 411 412 -413 0
-129 413 0
-129 -412 0
-129 -411 0
130 -411 -81 0
130 411 -131 0
-130 411 131 0
-130 -411 81 0
131 -412 -107 0
131 412 -132 0
-131 412 132 0
-131 -412 107 0
132 -413 -121 0
132 413 -133 0
-132 413 133 0
-132 -413 121 0
133 -396 -414 0
133 -395 414 0
-133 395 414 0
-133 396 -414 0
134 410 4 -135 0
134 -410 4 -37 0
-134 -4 0
-134 -410 37 0
-134 410 135 0
135 -411 -86 0
135 411 -136 0
-135 411 136 0
-135 -411 86 0
136 -412 -111 0
136 412 -137 0
-136 412 137 0
-136 -412 111 0
137 -413 -126 0
137 413 -138 0
-137 413 138 0
-137 -413 126 0
138 -395 -414 0
138 -394 414 0
-138 394 414 0
-138 395 -414 0
139 445 -140 0
139 -445 -151 0
-139 -445 151 0
-139 445 140 0
140 446 -141 0
140 -446 -146 0
-140 -446 146 0
-140 446 141 0
141 410 4 -142 0
141 -410 4 -47 0
-141 -4 0
-141 -410 47 0
-141 410 142 0
142 -411 -94 0
142 411 -143 0
-142 411 143 0
-142 -411 94 0
143 -412 -120 0
143 412 -144 0
-143 412 144 0
-143 -412 120 0
144 -413 -133 0
144 413 -145 0
-144 413 145 0
-144 -413 133 0
145 -394 -414 0
145 -393 414 0
-145 393 414 0
-145 394 -414 0
146 410 4 -147 0
146 -410 4 -53 0
-146 -4 0
-146 -410 53 0
-146 410 147 0
147 -411 -99 0
147 411 -148 0
-147 411 148 0
-147 -411 99 0
148 -412 -125 0
148 412 -149 0
-148 412 149 0
-148 -412 125 0
149 -413 -138 0
149 413 -150 0
-149 413 150 0
-149 -413 138 0
150 -393 -414 0
150 -392 414 0
-150 392 414 0
-150 393 -414 0
151 446 -152 0
151 -446 -157 0
-151 -446 157 0
-151 446 152 0
152 410 4 -153 0
152 -410 4 -59 0
-152 -4 0
-152 -410 59 0
-152 410 153 0
153 -411 -106 0
153 411 -154 0
-153 411 154 0
-153 -411 106 0
154 -412 -132 0
154 412 -155 0
-154 412 155 0
-154 -412 132 0
155 -413 -145 0
155 413 -156 0
-155 413 156 0
-155 -413 145 0
156 -392 -414 0
156 -391 414 0
-156 391 414 0
-156 392 -414 0
157 410 4 -158 0
157 -410 4 -65 0
-157 -4 0
-157 -410 65 0
-157 410 158 0
158 -411 -110 0
158 411 -159 0
-158 411 159 0
-158 -411 110 0
159 -412 -137 0
159 412 -160 0
-159 412 160 0
-159 -412 137 0
160 -413 -150 0
160 413 -161 0
-160 413 161 0
-160 -413 150 0
161 -391 -414 0
161 -390 414 0
-161 390 414 0
-161 391 -414 0
162 444 -163 0
162 -444 -187 0
-162 -444 187 0
-162 444 163 0
163 445 -164 0
163 -445 -176 0
-163 -445 176 0
-163 445 164 0
164 446 -165 0
164 -446 -170 0
-164 -446 170 0
-164 446 165 0
165 410 4 -166 0
165 -410 4 -73 0
-165 -4 0
-165 410 166 0
-165 -410 73 0
-166 -411 119 0
-166 411 167 0
166 -411 -119 0
166 411 -167 0
-167 412 168 0
-167 -412 144 0
167 -412 -144 0
167 412 -168 0
168 -413 -156 0
168 413 -169 0
-168 413 169 0
-168 -413 156 0
169 -390 -414 0
169 -389 414 0
-169 389 414 0
-169 390 -414 0
170 -410 4 -175 0
170 410 4 -171 0
-170 -4 0
-170 -410 175 0
-170 410 171 0
171 -411 -124 0
171 411 -172 0
-171 411 172 0
-171 -411 124 0
172 -412 -149 0
172 412 -173 0
-172 412 173 0
-172 -412 149 0
173 -413 -161 0
173 413 -174 0
-173 413 174 0
-173 -413 161 0
174 -389 -414 0
174 -388 414 0
-174 388 414 0
-174 389 -414 0
175 411 -123 0
-175 -411 0
-175 123 0
176 446 -177 0
176 -446 -182 0
-176 -446 182 0
-176 446 177 0
177 410 4 -178 0
177 -410 4 -79 0
-177 -4 0
-177 410 178 0
-177 -410 79 0
-178 -411 131 0
-178 411 179 0
178 -411 -131 0
178 411 -179 0
-179 412 180 0
-179 -412 155 0
179 -412 -155 0
179 412 -180 0
180 -413 -169 0
180 413 -181 0
-180 413 181 0
-180 -413 169 0
181 -388 -414 0
181 -387 414 0
-181 387 414 0
-181 388 -414 0
182 410 4 -183 0
182 -410 4 -85 0
-182 -4 0
-182 410 183 0
-182 -410 85 0
-183 -411 136 0
-183 411 184 0
183 -411 -136 0
183 411 -184 0
-184 -412 160 0
-184 412 185 0
184 -412 -160 0
184 412 -185 0
-185 413 186 0
-185 -413 174 0
185 -413 -174 0
185 413 -186 0
186 -387 -414 0
186 -386 414 0
-186 386 414 0
-186 387 -414 0
187 445 -188 0
187 -445 -199 0
-187 -445 199 0
-187 445 188 0
188 446 -189 0
188 -446 -194 0
-188 -446 194 0
-188 446 189 0
189 410 4 -190 0
189 -410 4 -93 0
-189 -4 0
-189 410 190 0
-189 -410 93 0
-190 -411 143 0
-190 411 191 0
190 -411 -143 0
190 411 -191 0
-191 -412 168 0
-191 412 192 0
191 -412 -168 0
191 412 -192 0
-192 413 193 0
-192 -413 181 0
192 -413 -181 0
192 413 -193 0
193 -386 -414 0
193 -385 414 0
-193 385 414 0
-193 386 -414 0
194 410 4 -195 0
194 4 -98 -195 0
-194 -4 0
-194 195 0
-194 -410 98 0
-195 410 411 196 0
-195 410 -411 148 0
195 -410 0
195 -411 -148 0
195 411 -196 0
-196 -412 173 0
-196 412 197 198 0
196 -412 -173 0
196 412 -198 0
196 412 -197 0
197 -385 -43 0
-197 385 0
-197 43 0
-198 413 -414 0
-198 -413 186 0
-198 384 413 0
198 -413 -186 0
198 -384 413 414 0
199 446 -200 0
-199 -446 0
-199 200 0
200 410 4 -201 0
200 4 -105 -201 0
-200 -4 0
-200 201 0
-200 -410 105 0
-201 410 411 202 0
-201 410 -411 154 0
201 -410 0
201 -411 -154 0
201 411 -202 0
-202 -412 180 0
-202 412 203 204 0
202 -412 -180 0
202 412 -204 0
202 412 -203 0
203 -384 -43 0
-203 384 0
-203 43 0
-204 413 -414 0
-204 -413 193 0
-204 383 413 0
204 -413 -193 0
204 -383 413 414 0
-205 442 221 0
-205 -442 206 0
205 -442 -206 0
205 442 -221 0
206 443 -207 0
206 -443 -214 0
-206 -443 214 0
-206 443 207 0
207 444 -208 0
207 -444 -211 0
-207 -444 211 0
-207 444 208 0
208 445 -209 0
208 -445 -210 0
-208 -445 210 0
-208 445 209 0
209 446 -109 0
209 -446 -117 0
-209 -446 117 0
-209 446 109 0
210 446 -122 0
210 -446 -128 0
-210 -446 128 0
-210 446 122 0
211 445 -212 0
211 -445 -213 0
-211 -445 213 0
-211 445 212 0
212 446 -134 0
212 -446 -141 0
-212 -446 141 0
-212 446 134 0
213 446 -146 0
213 -446 -152 0
-213 -446 152 0
-213 446 146 0
214 444 -215 0
214 -444 -218 0
-214 -444 218 0
-214 444 215 0
215 445 -216 0
215 -445 -217 0
-215 -445 217 0
-215 445 216 0
216 446 -157 0
216 -446 -165 0
-216 -446 165 0
-216 446 157 0
217 446 -170 0
217 -446 -177 0
-217 -446 177 0
-217 446 170 0
218 445 -219 0
218 -445 -220 0
-218 -445 220 0
-218 445 219 0
219 446 -182 0
219 -446 -189 0
-219 -446 189 0
-219 446 182 0
220 446 -194 0
220 -446 -200 0
-220 -446 200 0
-220 446 194 0
221 -443 -222 0
221 443 -229 0
-221 -443 222 0
-221 443 229 0
222 444 -223 0
222 -444 -226 0
-222 -444 226 0
-222 444 223 0
223 445 -224 0
223 -445 -225 0
-223 -445 225 0
-223 445 224 0
224 446 -64 0
224 -446 -72 0
-224 -446 72 0
-224 446 64 0
225 -446 -78 0
-225 446 0
-225 78 0
226 445 -227 0
226 -445 -228 0
-226 -445 228 0
-226 445 227 0
227 446 -84 0
227 -446 -92 0
-227 -446 92 0
-227 446 84 0
228 446 -97 0
228 -446 -104 0
-228 -446 104 0
-228 446 97 0
-229 444 230 0
-229 -444 231 0
229 -444 -231 0
229 444 -230 0
-230 446 0
-230 -445 34 0
-230 445 41 0
230 445 -446 -41 0
230 -445 -446 -34 0
231 445 -232 0
231 -445 -233 0
-231 -445 233 0
-231 445 232 0
232 446 -36 0
232 -446 -46 0
-232 -446 46 0
-232 446 36 0
233 446 -52 0
233 -446 -58 0
-233 -446 58 0
-233 446 52 0
234 414 18 -235 0
234 -414 18 -251 0
-234 -18 0
-234 -414 251 0
-234 414 235 0
-235 442 236 0
-235 -442 244 0
235 -442 -244 0
235 442 -236 0
-236 443 237 0
-236 -443 241 0
236 -443 -241 0
236 443 -237 0
-237 444 238 0
-237 -444 240 0
237 -444 -240 0
237 444 -238 0
-238 -445 232 0
-238 445 239 0
238 445 -239 0
238 -445 -232 0
239 -446 -34 0
-239 446 0
-239 34 0
240 -445 -224 0
240 445 -233 0
-240 445 233 0
-240 -445 224 0
241 444 -242 0
241 -444 -243 0
-241 -444 243 0
-241 444 242 0
242 445 -225 0
242 -445 -227 0
-242 -445 227 0
-242 445 225 0
243 -445 -209 0
243 445 -228 0
-243 445 228 0
-243 -445 209 0
244 443 -245 0
244 -443 -248 0
-244 -443 248 0
-244 443 245 0
245 444 -246 0
245 -444 -247 0
-245 -444 247 0
-245 444 246 0
246 445 -210 0
246 -445 -212 0
-246 -445 212 0
-246 445 210 0
247 445 -213 0
247 -445 -216 0
-247 -445 216 0
-247 445 213 0
248 444 -249 0
248 -444 -250 0
-248 -444 250 0
-248 444 249 0
249 445 -217 0
249 -445 -219 0
-249 -445 219 0
-249 445 217 0
250 445 -220 0
-250 -445 0
-250 220 0
-251 442 252 0
-251 -442 259 0
251 -442 -259 0
251 442 -252 0
-252 443 253 0
-252 -443 256 0
252 -443 -256 0
252 443 -253 0
-253 444 254 0
-253 -444 255 0
253 -444 -255 0
253 444 -254 0
-254 -445 45 0
-254 445 33 0
254 445 -33 0
254 -445 -45 0
255 445 -57 0
255 -445 -71 0
-255 -445 71 0
-255 445 57 0
256 444 -257 0
256 -444 -258 0
-256 -444 258 0
-256 444 257 0
257 445 -77 0
257 -445 -91 0
-257 -445 91 0
-257 445 77 0
258 445 -103 0
258 -445 -116 0
-258 -445 116 0
-258 445 103 0
259 443 -260 0
259 -443 -263 0
-259 -443 263 0
-259 443 260 0
260 444 -261 0
260 -444 -262 0
-260 -444 262 0
-260 444 261 0
261 445 -127 0
261 -445 -140 0
-261 -445 140 0
-261 445 127 0
262 445 -151 0
262 -445 -164 0
-262 -445 164 0
-262 445 151 0
263 444 -264 0
263 -444 -265 0
-263 -444 265 0
-263 444 264 0
264 445 -176 0
264 -445 -188 0
-264 -445 188 0
-264 445 176 0
265 445 -199 0
-265 -445 0
-265 199 0
266 -412 -413 282 0
266 -412 413 267 0
-266 412 0
-266 -413 -282 0
-266 413 -267 0
267 414 18 -268 0
267 -414 18 -275 0
-267 -18 0
-267 -414 275 0
-267 414 268 0
-268 442 269 0
-268 -442 272 0
268 -442 -272 0
268 442 -269 0
-269 443 270 0
-269 -443 271 0
269 -443 -271 0
269 443 -270 0
-270 444 231 0
-270 -444 223 0
270 -444 -223 0
270 444 -231 0
271 -444 -208 0
271 444 -226 0
-271 444 226 0
-271 -444 208 0
272 443 -273 0
272 -443 -274 0
-272 -443 274 0
-272 443 273 0
273 444 -211 0
273 -444 -215 0
-273 -444 215 0
-273 444 211 0
274 444 -218 0
-274 -444 0
-274 218 0
-275 442 276 0
-275 -442 279 0
275 -442 -279 0
275 442 -276 0
-276 443 277 0
-276 -443 278 0
276 -443 -278 0
276 443 -277 0
-277 -444 70 0
-277 444 44 0
277 444 -44 0
277 -444 -70 0
278 444 -90 0
278 -444 -115 0
-278 -444 115 0
-278 444 90 0
279 443 -280 0
279 -443 -281 0
-279 -443 281 0
-279 443 280 0
280 444 -139 0
280 -444 -163 0
-280 -444 163 0
-280 444 139 0
281 444 -187 0
-281 -444 0
-281 187 0
282 414 18 -283 0
282 -414 18 -290 0
-282 -18 0
-282 -414 290 0
-282 414 283 0
-283 442 284 0
-283 -442 287 0
283 -442 -287 0
283 442 -284 0
-284 443 285 0
-284 -443 286 0
284 -443 -286 0
284 443 -285 0
-285 -444 242 0
-285 444 240 0
285 444 -240 0
285 -444 -242 0
286 444 -243 0
286 -444 -246 0
-286 -444 246 0
-286 444 243 0
287 443 -288 0
287 -443 -289 0
-287 -443 289 0
-287 443 288 0
288 444 -247 0
288 -444 -249 0
-288 -444 249 0
-288 444 247 0
289 444 -250 0
-289 -444 0
-289 250 0
-290 442 291 0
-290 -442 294 0
290 -442 -294 0
290 442 -291 0
-291 443 292 0
-291 -443 293 0
291 -443 -293 0
291 443 -292 0
-292 -444 257 0
-292 444 255 0
292 444 -255 0
292 -444 -257 0
293 444 -258 0
293 -444 -261 0
-293 -444 261 0
-293 444 258 0
294 443 -295 0
294 -443 -296 0
-294 -443 296 0
-294 443 295 0
295 444 -262 0
295 -444 -264 0
-295 -444 264 0
-295 444 262 0
296 444 -265 0
-296 -444 0
-296 265 0
297 412 -298 0
297 -412 -313 320 0
-297 -412 313 0
-297 412 298 0
-297 -412 -320 0
298 413 -299 0
298 -413 -306 0
-298 -413 306 0
-298 413 299 0
299 414 18 -300 0
299 -414 18 -303 0
-299 -18 0
-299 -414 303 0
-299 414 300 0
-300 442 301 0
-300 -442 302 0
300 -442 -302 0
300 442 -301 0
-301 443 222 0
-301 -443 207 0
301 -443 -207 0
301 443 -222 0
302 443 -214 0
-302 -443 0
-302 214 0
-303 442 304 0
-303 -442 305 0
303 -442 -305 0
303 442 -304 0
-304 -443 114 0
-304 443 69 0
304 443 -69 0
304 -443 -114 0
305 443 -162 0
-305 -443 0
-305 162 0
306 414 -307 0
306 -414 -310 0
-306 -414 310 0
-306 414 307 0
307 -442 18 -309 0
307 442 18 -308 0
-307 -18 0
-307 -442 309 0
-307 442 308 0
308 443 -241 0
308 -443 -245 0
-308 -443 245 0
-308 443 241 0
309 443 -248 0
-309 -443 0
-309 248 0
310 -442 18 -312 0
310 442 18 -311 0
-310 -18 0
-310 -442 312 0
-310 442 311 0
311 443 -256 0
311 -443 -260 0
-311 -443 260 0
-311 443 256 0
312 443 -263 0
-312 -443 0
-312 263 0
-313 413 -414 317 0
-313 413 414 314 0
313 -413 0
313 -414 -317 0
313 414 -314 0
314 -442 18 -316 0
314 442 18 -315 0
-314 -18 0
-314 -442 316 0
-314 442 315 0
315 443 -271 0
315 -443 -273 0
-315 -443 273 0
-315 443 271 0
316 443 -274 0
-316 -443 0
-316 274 0
317 -442 18 -319 0
317 442 18 -318 0
-317 -18 0
-317 -442 319 0
-317 442 318 0
318 443 -278 0
318 -443 -280 0
-318 -443 280 0
-318 443 278 0
319 443 -281 0
-319 -443 0
-319 281 0
320 -413 -414 324 0
320 -413 414 321 0
-320 413 0
-320 -414 -324 0
-320 414 -321 0
321 -442 18 -323 0
321 442 18 -322 0
-321 -18 0
-321 -442 323 0
-321 442 322 0
322 443 -286 0
322 -443 -288 0
-322 -443 288 0
-322 443 286 0
323 443 -289 0
-323 -443 0
-323 289 0
324 -442 18 -326 0
324 442 18 -325 0
-324 -18 0
-324 -442 326 0
-324 442 325 0
325 443 -293 0
325 -443 -295 0
-325 -443 295 0
-325 443 293 0
326 443 -296 0
-326 -443 0
-326 296 0
327 411 -328 0
327 -411 -336 339 0
-327 -411 336 0
-327 411 328 0
-327 -411 -339 0
328 412 -329 0
328 -412 -333 0
-328 -412 333 0
-328 412 329 0
329 413 -330 0
329 -413 -332 0
-329 -413 332 0
-329 413 330 0
330 -414 -113 331 0
330 414 -206 331 0
-330 -331 0
-330 -414 113 0
-330 414 206 0
-331 442 18 0
331 -442 0
331 -18 0
332 414 -244 331 0
332 -414 -259 331 0
-332 -331 0
-332 -414 259 0
-332 414 244 0
333 413 -334 0
333 -413 -335 0
-333 -413 335 0
-333 413 334 0
334 414 -272 331 0
334 -414 -279 331 0
-334 -331 0
-334 -414 279 0
-334 414 272 0
335 414 -287 331 0
335 -414 -294 331 0
-335 -331 0
-335 -414 294 0
-335 414 287 0
-336 412 -413 338 0
-336 412 413 337 0
336 -412 0
336 -413 -338 0
336 413 -337 0
337 414 -302 331 0
337 -414 -305 331 0
-337 -331 0
-337 -414 305 0
-337 414 302 0
338 414 -309 331 0
338 -414 -312 331 0
-338 -331 0
-338 -414 312 0
-338 414 309 0
339 -412 -413 341 0
339 -412 413 340 0
-339 412 0
-339 -413 -341 0
-339 413 -340 0
340 414 -316 331 0
340 -414 -319 331 0
-340 -331 0
-340 -414 319 0
-340 414 316 0
341 414 -323 331 0
341 -414 -326 331 0
-341 -331 0
-341 -414 326 0
-341 414 323 0
342 -442 331 0
342 443 331 -343 0
-342 -331 0
-342 442 -443 0
-342 442 343 0
343 444 -344 0
343 -444 445 -381 0
-343 -444 -445 0
-343 444 344 0
-343 -444 381 0
344 -445 -375 0
344 445 -345 0
-344 445 345 0
-344 -445 375 0
-345 446 356 0
-345 -446 346 0
-345 446 -4 0
345 -446 -346 0
345 446 4 -356 0
-346 411 347 350 0
-346 -411 347 353 0
346 -347 0
346 -411 -353 0
346 411 -350 0
-347 34 64 348 0
347 -34 0
347 -348 0
347 -64 0
348 412 -413 -349 0
348 -412 -413 -104 0
-348 413 0
-348 -412 104 0
-348 412 349 0
349 414 -78 0
349 -414 -84 0
-349 -414 84 0
-349 414 78 0
350 412 -128 0
350 -412 -351 0
-350 -412 351 0
-350 412 128 0
351 -157 -352 0
351 414 -352 0
-351 352 0
-351 -414 157 0
-352 414 152 0
352 -414 0
352 -152 0
353 -412 -413 -355 0
353 412 -413 -354 0
-353 413 0
-353 -412 355 0
-353 412 354 0
354 414 -177 0
354 -414 -182 0
-354 -414 182 0
-354 414 177 0
355 414 -200 0
-355 -414 0
-355 200 0
-356 411 357 372 0
-356 -411 357 369 0
356 -357 0
356 -411 -369 0
356 411 -372 0
357 411 -358 0
357 -411 -363 366 0
-357 -411 363 0
-357 411 358 0
-357 -411 -366 0
358 412 -359 0
358 -412 -360 0
-358 -412 360 0
-358 412 359 0
359 413 -117 0
359 -413 -414 -134 0
-359 -413 134 0
-359 413 117 0
-359 -413 414 0
360 413 -361 0
360 -413 -362 0
-360 -413 362 0
-360 413 361 0
361 414 -134 0
361 -414 -141 0
-361 -414 141 0
-361 414 134 0
362 414 -146 0
362 -414 -152 0
-362 -414 152 0
-362 414 146 0
-363 412 -413 365 0
-363 412 413 364 0
363 -412 0
363 -413 -365 0
363 413 -364 0
364 414 -157 0
364 -414 -165 0
-364 -414 165 0
-364 414 157 0
365 -177 -352 0
365 414 -352 0
-365 352 0
-365 -414 177 0
366 -412 -413 368 0
366 -412 413 367 0
-366 412 0
-366 -413 -368 0
-366 413 -367 0
367 414 -182 0
367 -414 -189 0
-367 -414 189 0
-367 414 182 0
368 414 -194 0
368 -414 -200 0
-368 -414 200 0
-368 414 194 0
369 412 -84 0
369 -412 -370 0
-369 -412 370 0
-369 412 84 0
370 -413 -371 0
370 413 -414 -92 0
-370 -413 371 0
-370 413 92 0
-370 413 414 0
371 414 -97 0
371 -414 -109 0
-371 -414 109 0
-371 414 97 0
-372 -413 373 374 0
-372 413 46 373 0
372 -373 0
372 413 -46 0
372 -413 -374 0
-373 36 41 0
373 -36 0
373 -41 0
374 414 -52 0
374 -414 -58 0
-374 -414 58 0
-374 414 52 0
375 -446 -379 0
375 446 -376 0
375 446 -377 0
-375 -446 379 0
-375 446 376 377 0
-376 -413 64 104 0
-376 413 104 374 0
376 -104 0
376 413 -374 0
376 -413 -64 0
377 411 -378 0
377 -411 413 -368 0
-377 -411 -413 0
-377 411 378 0
-377 -411 368 0
378 -413 -351 0
378 413 -362 0
-378 413 362 0
-378 -413 351 0
-379 -412 104 380 0
-379 412 349 380 0
379 -380 0
379 412 -349 0
379 -412 -104 0
380 412 -354 0
380 -412 413 -355 0
-380 -412 -413 0
-380 412 354 0
-380 -412 355 0
381 411 446 -382 0
381 -411 446 -354 0
-381 -446 0
-381 -411 354 0
-381 411 382 0
382 412 -360 0
382 -412 -378 0
-382 -412 378 0
-382 412 360 0
-447 0
2 0

